(set-logic QF_UF)
(declare-fun A0 () Bool)
(declare-fun A1 () Bool)
(declare-fun A2 () Bool)
(declare-fun A3 () Bool)
(declare-fun A4 () Bool)
(declare-fun A5 () Bool)
(declare-fun A6 () Bool)
(declare-fun A7 () Bool)
(declare-fun A8 () Bool)
(declare-fun A9 () Bool)
(declare-fun A10 () Bool)
(declare-fun A11 () Bool)
(declare-fun A12 () Bool)
(declare-fun A13 () Bool)
(declare-fun A15 () Bool)
(declare-fun A16 () Bool)
(declare-fun A17 () Bool)
(declare-fun A18 () Bool)
(declare-fun A20 () Bool)
(declare-fun A21 () Bool)
(declare-fun A22 () Bool)
(declare-fun A24 () Bool)
(assert (let ((.def_0 (not A7))) (let ((.def_1 (and .def_0 A24))) (let ((.def_2 (not A5))) (let ((.def_3 (and .def_2 .def_2))) (let ((.def_4 (not .def_3))) (let ((.def_5 (and .def_4 .def_1))) (let ((.def_6 (not .def_5))) (let ((.def_7 (not A24))) (let ((.def_8 (not A2))) (let ((.def_9 (and .def_8 .def_7))) (let ((.def_10 (not .def_9))) (let ((.def_11 (not A22))) (let ((.def_12 (and A20 .def_11))) (let ((.def_13 (= .def_12 .def_10))) (let ((.def_14 (not .def_13))) (let ((.def_15 (or .def_14 .def_6))) (let ((.def_16 (not A3))) (let ((.def_17 (not A10))) (let ((.def_18 (and .def_17 .def_16))) (let ((.def_19 (= .def_8 A22))) (let ((.def_20 (not .def_19))) (let ((.def_21 (and .def_20 .def_18))) (let ((.def_22 (and A18 A11))) (let ((.def_23 (not A12))) (let ((.def_24 (and A7 .def_23))) (let ((.def_25 (not .def_24))) (let ((.def_26 (and .def_25 .def_22))) (let ((.def_27 (and .def_26 .def_21))) (let ((.def_28 (not .def_27))) (let ((.def_29 (and .def_28 .def_15))) (let ((.def_30 (not .def_29))) (let ((.def_31 (not A13))) (let ((.def_32 (or A22 .def_31))) (let ((.def_33 (not A1))) (let ((.def_34 (and .def_33 A24))) (let ((.def_35 (and .def_34 .def_32))) (let ((.def_36 (not .def_35))) (let ((.def_37 (or A3 A0))) (let ((.def_38 (and A5 A5))) (let ((.def_39 (not .def_38))) (let ((.def_40 (or .def_39 .def_37))) (let ((.def_41 (and .def_40 .def_36))) (let ((.def_42 (not .def_41))) (let ((.def_43 (not A20))) (let ((.def_44 (or .def_43 A9))) (let ((.def_45 (not .def_44))) (let ((.def_46 (and A12 .def_2))) (let ((.def_47 (or .def_46 .def_45))) (let ((.def_48 (not .def_47))) (let ((.def_49 (or A13 A11))) (let ((.def_50 (not A15))) (let ((.def_51 (and .def_11 .def_50))) (let ((.def_52 (not .def_51))) (let ((.def_53 (or .def_52 .def_49))) (let ((.def_54 (not .def_53))) (let ((.def_55 (and .def_54 .def_48))) (let ((.def_56 (not .def_55))) (let ((.def_57 (and .def_56 .def_42))) (let ((.def_58 (not .def_57))) (let ((.def_59 (= .def_58 .def_30))) (let ((.def_60 (not .def_59))) (let ((.def_61 (or A16 A7))) (let ((.def_62 (= A17 .def_0))) (let ((.def_63 (not .def_62))) (let ((.def_64 (or .def_63 .def_61))) (let ((.def_65 (and .def_16 .def_33))) (let ((.def_66 (not .def_65))) (let ((.def_67 (not A17))) (let ((.def_68 (= .def_67 A17))) (let ((.def_69 (or .def_68 .def_66))) (let ((.def_70 (or .def_69 .def_64))) (let ((.def_71 (not .def_70))) (let ((.def_72 (or .def_33 A9))) (let ((.def_73 (not .def_72))) (let ((.def_74 (or A21 .def_7))) (let ((.def_75 (= .def_74 .def_73))) (let ((.def_76 (not A9))) (let ((.def_77 (and A10 .def_76))) (let ((.def_78 (or A12 .def_50))) (let ((.def_79 (not .def_78))) (let ((.def_80 (and .def_79 .def_77))) (let ((.def_81 (not .def_80))) (let ((.def_82 (and .def_81 .def_75))) (let ((.def_83 (or .def_82 .def_71))) (let ((.def_84 (not A6))) (let ((.def_85 (and A13 .def_84))) (let ((.def_86 (not A4))) (let ((.def_87 (or .def_33 .def_86))) (let ((.def_88 (not .def_87))) (let ((.def_89 (or .def_88 .def_85))) (let ((.def_90 (not .def_89))) (let ((.def_91 (and .def_16 .def_31))) (let ((.def_92 (or A15 .def_23))) (let ((.def_93 (not .def_92))) (let ((.def_94 (and .def_93 .def_91))) (let ((.def_95 (not .def_94))) (let ((.def_96 (or .def_95 .def_90))) (let ((.def_97 (or A7 A6))) (let ((.def_98 (not .def_97))) (let ((.def_99 (= A3 A18))) (let ((.def_100 (and .def_99 .def_98))) (let ((.def_101 (not .def_100))) (let ((.def_102 (or A8 A11))) (let ((.def_103 (not .def_102))) (let ((.def_104 (or A12 A6))) (let ((.def_105 (not .def_104))) (let ((.def_106 (and .def_105 .def_103))) (let ((.def_107 (or .def_106 .def_101))) (let ((.def_108 (or .def_107 .def_96))) (let ((.def_109 (not .def_108))) (let ((.def_110 (and .def_109 .def_83))) (let ((.def_111 (= .def_110 .def_60))) .def_111)))))))))))))))))))))))))))))))))))))))))))))))))))))))))))))))))))))))))))))))))))))))))))))))))))))))))))))))))
(check-sat)
